40
    23    75    17    14    92    58    65    79    46    30    21    58   100    68     1    42    97   100     1    22     9     8    93    95    36    26    29    60     6    42    38    18    74    98    29    75    25    88    85    39
     8     9     9     7     7     3     6     8     2     3     1     2     3     3     5     5     8     2     1     6     5     6     8     4     9     5     6     9     5     7     9     4     3     4     6     9     7     5     8     9
   872   724   826   789   878   974   680   847   796   662   639   800   717   952   742   884   735   900   987   680   919   909   609   884   674   830   710   924   688   649   760   724   712   966   836   689   719   905   893   712
